

budget= 51200.000000;

nprojects= 64;

nareas= 8;

nactivities= 16;

nsynergies= 2;

Areas=[
< 8087.595, 12549.717>
< 2386.397, 7291.768>
< 1903.381, 11843.261>
< 1744.758, 12019.444>
< 8865.376, 17730.752>
< 5135.905, 13147.917>
< 2039.035, 9082.974>
< 3624.820, 6578.377>
];


Projects= [
<4682.42, 6099.14, 4,4.82>
<4098.20, 5787.12, 5,9.65>
<1389.96, 5809.18, 2,4.19>
<3879.98, 5936.00, 1,4.12>
<738.14, 5949.16, 1,7.83>
<1308.20, 6022.40, 4,5.87>
<804.25, 5878.32, 3,5.24>
<3084.25, 6020.88, 8,7.97>
<4474.86, 5749.02, 5,4.19>
<416.64, 5895.16, 6,7.76>
<4314.85, 5855.12, 5,9.51>
<1531.91, 5818.04, 4,8.60>
<2629.71, 5786.26, 6,3.84>
<2740.81, 5922.76, 2,7.62>
<2428.43, 5726.06, 4,6.78>
<4208.53, 5699.68, 1,5.94>
<3918.24, 5784.04, 6,6.08>
<3895.09, 5856.14, 7,5.31>
<2588.85, 5867.30, 8,4.19>
<4296.68, 5862.34, 6,6.01>
<2819.76, 5726.30, 7,7.97>
<1744.31, 5841.90, 4,8.95>
<3843.78, 5795.78, 6,4.12>
<2151.24, 5759.42, 2,9.44>
<1308.03, 5871.50, 3,4.61>
<3421.12, 5953.38, 5,4.33>
<2820.76, 6052.28, 7,4.96>
<3035.10, 6050.60, 3,6.57>
<1738.00, 5849.06, 4,3.70>
<282.55, 5959.24, 1,5.80>
<1993.13, 5881.58, 6,7.97>
<3720.81, 5824.56, 1,9.72>
<3401.38, 5840.02, 8,8.25>
<4631.99, 5892.26, 4,4.96>
<1628.37, 5800.66, 5,8.81>
<4228.62, 5815.00, 5,5.10>
<2914.43, 5864.64, 5,3.84>
<2372.42, 5875.32, 7,3.63>
<4250.50, 5847.92, 3,8.39>
<2234.07, 5917.20, 1,4.05>
<260.00, 6069.92, 8,7.62>
<1178.76, 5967.28, 8,7.76>
<2936.77, 5854.16, 1,9.30>
<829.71, 5923.14, 3,9.16>
<841.12, 5801.84, 1,9.30>
<4470.40, 5836.92, 3,4.12>
<3059.77, 5956.96, 2,3.98>
<2957.64, 5841.30, 6,8.60>
<2375.47, 5875.78, 8,6.15>
<798.34, 5974.28, 3,5.31>
<3658.84, 5903.68, 5,8.81>
<558.30, 6073.80, 4,8.74>
<3463.73, 5930.32, 7,5.45>
<3717.53, 5844.24, 1,8.39>
<4187.11, 5943.56, 3,6.43>
<523.24, 5897.76, 7,3.84>
<4280.03, 5926.08, 1,5.10>
<1543.13, 6007.80, 5,7.34>
<1649.60, 5921.72, 2,3.35>
<1820.84, 5719.24, 2,4.40>
<1234.95, 5825.10, 7,8.74>
<756.66, 5819.90, 5,7.20>
<1697.22, 5947.02, 5,3.00>
<752.44, 5964.66, 3,9.23>];

Activities= {
<1, 1, 0.13, 336.00, 362.88>,
<1, 2, 0.05, 380.00, 390.80>,
<1, 3, 0.07, 348.00, 382.84>,
<1, 4, 0.02, 372.00, 392.72>,
<1, 5, 0.05, 362.00, 382.90>,
<1, 6, 0.00, 356.00, 377.12>,
<1, 7, 0.01, 354.00, 373.32>,
<1, 8, 0.12, 372.00, 387.12>,
<1, 9, 0.07, 336.00, 362.24>,
<1, 10, 0.05, 334.00, 364.36>,
<1, 11, 0.08, 386.00, 392.02>,
<1, 12, 0.07, 378.00, 390.10>,
<1, 13, 0.04, 380.00, 393.60>,
<1, 14, 0.10, 378.00, 390.10>,
<1, 15, 0.11, 356.00, 389.00>,
<1, 16, 0.04, 322.00, 368.02>,
<2, 1, 0.09, 242.00, 317.84>,
<2, 2, 0.12, 316.00, 370.60>,
<2, 3, 0.07, 248.00, 365.04>,
<2, 4, 0.11, 250.00, 359.50>,
<2, 5, 0.00, 290.00, 372.50>,
<2, 6, 0.08, 264.00, 346.96>,
<2, 7, 0.06, 370.00, 393.70>,
<2, 8, 0.03, 284.00, 342.00>,
<2, 9, 0.04, 260.00, 334.20>,
<2, 10, 0.07, 300.00, 341.00>,
<2, 11, 0.08, 316.00, 363.88>,
<2, 12, 0.11, 262.00, 317.20>,
<2, 13, 0.05, 390.00, 397.70>,
<2, 14, 0.03, 356.00, 383.72>,
<2, 15, 0.05, 348.00, 384.92>,
<2, 16, 0.02, 386.00, 396.36>,
<3, 1, 0.08, 314.00, 380.22>,
<3, 2, 0.07, 366.00, 380.96>,
<3, 3, 0.11, 240.00, 336.00>,
<3, 4, 0.08, 320.00, 371.20>,
<3, 5, 0.06, 288.00, 365.28>,
<3, 6, 0.01, 290.00, 335.10>,
<3, 7, 0.07, 300.00, 364.00>,
<3, 8, 0.08, 280.00, 340.00>,
<3, 9, 0.05, 318.00, 361.46>,
<3, 10, 0.05, 338.00, 368.38>,
<3, 11, 0.03, 282.00, 369.32>,
<3, 12, 0.00, 340.00, 385.60>,
<3, 13, 0.06, 274.00, 340.78>,
<3, 14, 0.10, 254.00, 359.12>,
<3, 15, 0.05, 352.00, 374.56>,
<3, 16, 0.10, 340.00, 377.20>,
<4, 1, 0.08, 368.00, 392.64>,
<4, 2, 0.11, 254.00, 353.28>,
<4, 3, 0.07, 244.00, 345.40>,
<4, 4, 0.06, 264.00, 346.96>,
<4, 5, 0.07, 350.00, 374.00>,
<4, 6, 0.12, 394.00, 397.18>,
<4, 7, 0.06, 322.00, 363.34>,
<4, 8, 0.04, 348.00, 380.76>,
<4, 9, 0.03, 280.00, 341.20>,
<4, 10, 0.03, 398.00, 398.86>,
<4, 11, 0.02, 280.00, 373.60>,
<4, 12, 0.11, 358.00, 384.46>,
<4, 13, 0.00, 286.00, 353.26>,
<4, 14, 0.04, 370.00, 391.90>,
<4, 15, 0.10, 332.00, 373.48>,
<4, 16, 0.05, 312.00, 365.68>,
<5, 1, 0.10, 278.00, 364.62>,
<5, 2, 0.10, 370.00, 386.50>,
<5, 3, 0.07, 382.00, 391.90>,
<5, 4, 0.05, 306.00, 348.30>,
<5, 5, 0.07, 260.00, 330.00>,
<5, 6, 0.06, 376.00, 388.96>,
<5, 7, 0.02, 390.00, 394.60>,
<5, 8, 0.03, 348.00, 374.00>,
<5, 9, 0.04, 244.00, 356.32>,
<5, 10, 0.04, 398.00, 399.36>,
<5, 11, 0.07, 246.00, 318.38>,
<5, 12, 0.08, 248.00, 340.72>,
<5, 13, 0.08, 366.00, 386.40>,
<5, 14, 0.06, 390.00, 395.90>,
<5, 15, 0.09, 354.00, 381.60>,
<5, 16, 0.04, 380.00, 391.60>,
<6, 1, 0.07, 326.00, 380.76>,
<6, 2, 0.05, 274.00, 355.90>,
<6, 3, 0.07, 346.00, 380.56>,
<6, 4, 0.05, 396.00, 397.72>,
<6, 5, 0.05, 254.00, 360.58>,
<6, 6, 0.10, 254.00, 354.74>,
<6, 7, 0.09, 346.00, 373.54>,
<6, 8, 0.11, 390.00, 394.10>,
<6, 9, 0.10, 390.00, 397.10>,
<6, 10, 0.03, 352.00, 371.20>,
<6, 11, 0.01, 368.00, 392.96>,
<6, 12, 0.09, 306.00, 348.30>,
<6, 13, 0.01, 380.00, 391.40>,
<6, 14, 0.04, 396.00, 398.12>,
<6, 15, 0.10, 368.00, 385.28>,
<6, 16, 0.04, 254.00, 340.14>,
<7, 1, 0.02, 240.00, 332.80>,
<7, 2, 0.02, 320.00, 376.80>,
<7, 3, 0.15, 314.00, 378.50>,
<7, 4, 0.09, 374.00, 391.16>,
<7, 5, 0.03, 270.00, 325.90>,
<7, 6, 0.11, 332.00, 360.56>,
<7, 7, 0.01, 268.00, 337.96>,
<7, 8, 0.09, 336.00, 386.56>,
<7, 9, 0.01, 354.00, 386.66>,
<7, 10, 0.09, 348.00, 379.72>,
<7, 11, 0.00, 336.00, 384.64>,
<7, 12, 0.01, 348.00, 374.52>,
<7, 13, 0.16, 348.00, 382.32>,
<7, 14, 0.00, 296.00, 357.36>,
<7, 15, 0.17, 288.00, 361.92>,
<7, 16, 0.03, 274.00, 360.94>,
<8, 1, 0.10, 392.00, 397.36>,
<8, 2, 0.07, 380.00, 393.20>,
<8, 3, 0.11, 266.00, 371.86>,
<8, 4, 0.12, 378.00, 388.12>,
<8, 5, 0.02, 356.00, 385.92>,
<8, 6, 0.02, 382.00, 395.86>,
<8, 7, 0.03, 380.00, 395.00>,
<8, 8, 0.01, 362.00, 391.26>,
<8, 9, 0.10, 288.00, 376.48>,
<8, 10, 0.10, 354.00, 382.98>,
<8, 11, 0.11, 348.00, 378.68>,
<8, 12, 0.10, 290.00, 372.50>,
<8, 13, 0.04, 350.00, 371.00>,
<8, 14, 0.05, 320.00, 363.20>,
<8, 15, 0.02, 258.00, 329.00>,
<8, 16, 0.02, 254.00, 328.46>,
<9, 1, 0.05, 300.00, 359.00>,
<9, 2, 0.07, 244.00, 336.04>,
<9, 3, 0.06, 350.00, 373.00>,
<9, 4, 0.03, 244.00, 307.96>,
<9, 5, 0.10, 398.00, 399.58>,
<9, 6, 0.11, 266.00, 337.02>,
<9, 7, 0.12, 328.00, 358.96>,
<9, 8, 0.10, 278.00, 348.76>,
<9, 9, 0.02, 394.00, 398.74>,
<9, 10, 0.09, 356.00, 390.76>,
<9, 11, 0.04, 252.00, 321.56>,
<9, 12, 0.05, 256.00, 343.84>,
<9, 13, 0.05, 344.00, 368.08>,
<9, 14, 0.03, 338.00, 375.82>,
<9, 15, 0.01, 288.00, 338.40>,
<9, 16, 0.06, 366.00, 391.50>,
<10, 1, 0.05, 328.00, 359.68>,
<10, 2, 0.12, 364.00, 382.72>,
<10, 3, 0.13, 346.00, 367.60>,
<10, 4, 0.08, 240.00, 337.60>,
<10, 5, 0.08, 316.00, 356.32>,
<10, 6, 0.11, 362.00, 382.52>,
<10, 7, 0.03, 340.00, 364.00>,
<10, 8, 0.01, 264.00, 366.00>,
<10, 9, 0.02, 320.00, 361.60>,
<10, 10, 0.03, 368.00, 389.12>,
<10, 11, 0.08, 294.00, 373.50>,
<10, 12, 0.07, 256.00, 361.12>,
<10, 13, 0.05, 322.00, 379.72>,
<10, 14, 0.04, 320.00, 360.80>,
<10, 15, 0.09, 342.00, 387.82>,
<10, 16, 0.02, 308.00, 365.04>,
<11, 1, 0.01, 292.00, 343.84>,
<11, 2, 0.02, 276.00, 325.60>,
<11, 3, 0.15, 388.00, 393.16>,
<11, 4, 0.02, 382.00, 392.80>,
<11, 5, 0.05, 332.00, 372.12>,
<11, 6, 0.15, 338.00, 380.16>,
<11, 7, 0.02, 314.00, 373.34>,
<11, 8, 0.14, 268.00, 337.96>,
<11, 9, 0.01, 346.00, 376.78>,
<11, 10, 0.09, 274.00, 350.86>,
<11, 11, 0.03, 272.00, 337.28>,
<11, 12, 0.05, 286.00, 362.38>,
<11, 13, 0.03, 396.00, 398.96>,
<11, 14, 0.14, 268.00, 327.40>,
<11, 15, 0.03, 372.00, 388.24>,
<11, 16, 0.07, 382.00, 394.24>,
<12, 1, 0.07, 312.00, 367.44>,
<12, 2, 0.10, 276.00, 340.48>,
<12, 3, 0.04, 344.00, 377.60>,
<12, 4, 0.05, 322.00, 361.00>,
<12, 5, 0.04, 324.00, 381.76>,
<12, 6, 0.03, 318.00, 363.92>,
<12, 7, 0.07, 338.00, 364.04>,
<12, 8, 0.09, 318.00, 363.92>,
<12, 9, 0.07, 382.00, 395.68>,
<12, 10, 0.04, 242.00, 333.64>,
<12, 11, 0.05, 300.00, 346.00>,
<12, 12, 0.08, 338.00, 372.72>,
<12, 13, 0.06, 248.00, 368.08>,
<12, 14, 0.10, 254.00, 324.08>,
<12, 15, 0.05, 324.00, 375.68>,
<12, 16, 0.07, 328.00, 382.00>,
<13, 1, 0.02, 298.00, 371.44>,
<13, 2, 0.08, 314.00, 350.98>,
<13, 3, 0.00, 294.00, 369.26>,
<13, 4, 0.10, 292.00, 338.44>,
<13, 5, 0.13, 334.00, 383.50>,
<13, 6, 0.06, 326.00, 374.10>,
<13, 7, 0.02, 276.00, 338.00>,
<13, 8, 0.02, 300.00, 356.00>,
<13, 9, 0.05, 258.00, 324.74>,
<13, 10, 0.09, 244.00, 343.84>,
<13, 11, 0.11, 334.00, 384.16>,
<13, 12, 0.04, 240.00, 364.80>,
<13, 13, 0.01, 306.00, 371.80>,
<13, 14, 0.11, 254.00, 345.98>,
<13, 15, 0.11, 386.00, 392.02>,
<13, 16, 0.04, 360.00, 377.20>,
<14, 1, 0.00, 374.00, 394.02>,
<14, 2, 0.14, 278.00, 332.90>,
<14, 3, 0.02, 300.00, 345.00>,
<14, 4, 0.04, 330.00, 366.40>,
<14, 5, 0.07, 306.00, 369.92>,
<14, 6, 0.09, 316.00, 368.08>,
<14, 7, 0.12, 396.00, 399.00>,
<14, 8, 0.07, 272.00, 371.84>,
<14, 9, 0.03, 390.00, 396.70>,
<14, 10, 0.01, 304.00, 352.00>,
<14, 11, 0.06, 270.00, 341.50>,
<14, 12, 0.03, 358.00, 389.08>,
<14, 13, 0.01, 364.00, 386.68>,
<14, 14, 0.15, 332.00, 374.84>,
<14, 15, 0.12, 340.00, 368.80>,
<14, 16, 0.04, 332.00, 366.00>,
<15, 1, 0.07, 254.00, 343.06>,
<15, 2, 0.03, 326.00, 381.50>,
<15, 3, 0.11, 256.00, 343.84>,
<15, 4, 0.04, 292.00, 362.20>,
<15, 5, 0.00, 300.00, 348.00>,
<15, 6, 0.10, 248.00, 362.00>,
<15, 7, 0.01, 266.00, 343.72>,
<15, 8, 0.10, 342.00, 383.18>,
<15, 9, 0.04, 328.00, 368.32>,
<15, 10, 0.06, 344.00, 375.36>,
<15, 11, 0.02, 314.00, 364.74>,
<15, 12, 0.08, 312.00, 375.36>,
<15, 13, 0.09, 240.00, 307.20>,
<15, 14, 0.11, 378.00, 393.84>,
<15, 15, 0.11, 260.00, 348.20>,
<15, 16, 0.03, 254.00, 325.54>,
<16, 1, 0.09, 262.00, 347.56>,
<16, 2, 0.07, 388.00, 393.28>,
<16, 3, 0.11, 296.00, 365.68>,
<16, 4, 0.01, 266.00, 320.94>,
<16, 5, 0.07, 316.00, 367.24>,
<16, 6, 0.01, 368.00, 392.64>,
<16, 7, 0.04, 262.00, 318.58>,
<16, 8, 0.07, 330.00, 369.20>,
<16, 9, 0.09, 396.00, 398.00>,
<16, 10, 0.05, 348.00, 374.52>,
<16, 11, 0.03, 316.00, 351.28>,
<16, 12, 0.06, 246.00, 344.56>,
<16, 13, 0.02, 250.00, 346.00>,
<16, 14, 0.09, 346.00, 371.38>,
<16, 15, 0.08, 240.00, 305.60>,
<16, 16, 0.11, 274.00, 333.22>,
<17, 1, 0.07, 288.00, 349.60>,
<17, 2, 0.08, 324.00, 381.76>,
<17, 3, 0.11, 240.00, 340.80>,
<17, 4, 0.01, 352.00, 378.40>,
<17, 5, 0.02, 298.00, 365.32>,
<17, 6, 0.10, 244.00, 350.08>,
<17, 7, 0.05, 372.00, 386.00>,
<17, 8, 0.02, 260.00, 335.60>,
<17, 9, 0.11, 380.00, 391.20>,
<17, 10, 0.02, 250.00, 344.50>,
<17, 11, 0.05, 252.00, 352.64>,
<17, 12, 0.01, 310.00, 346.00>,
<17, 13, 0.02, 356.00, 380.64>,
<17, 14, 0.13, 248.00, 308.80>,
<17, 15, 0.14, 324.00, 373.40>,
<17, 16, 0.05, 398.00, 399.30>,
<18, 1, 0.07, 346.00, 383.80>,
<18, 2, 0.05, 374.00, 390.90>,
<18, 3, 0.01, 304.00, 379.84>,
<18, 4, 0.13, 270.00, 342.80>,
<18, 5, 0.02, 362.00, 389.36>,
<18, 6, 0.08, 350.00, 379.00>,
<18, 7, 0.09, 286.00, 332.74>,
<18, 8, 0.09, 286.00, 331.60>,
<18, 9, 0.04, 300.00, 367.00>,
<18, 10, 0.10, 328.00, 367.60>,
<18, 11, 0.02, 348.00, 376.08>,
<18, 12, 0.02, 284.00, 344.32>,
<18, 13, 0.01, 250.00, 353.50>,
<18, 14, 0.09, 320.00, 383.20>,
<18, 15, 0.04, 320.00, 352.00>,
<18, 16, 0.13, 320.00, 382.40>,
<19, 1, 0.05, 384.00, 395.20>,
<19, 2, 0.05, 372.00, 391.60>,
<19, 3, 0.01, 360.00, 390.80>,
<19, 4, 0.06, 386.00, 396.64>,
<19, 5, 0.04, 336.00, 386.56>,
<19, 6, 0.06, 348.00, 371.40>,
<19, 7, 0.10, 266.00, 354.44>,
<19, 8, 0.04, 256.00, 351.04>,
<19, 9, 0.02, 272.00, 364.16>,
<19, 10, 0.10, 284.00, 330.40>,
<19, 11, 0.04, 298.00, 360.22>,
<19, 12, 0.10, 340.00, 370.60>,
<19, 13, 0.10, 244.00, 307.96>,
<19, 14, 0.09, 316.00, 381.52>,
<19, 15, 0.06, 272.00, 348.80>,
<19, 16, 0.08, 252.00, 365.96>,
<20, 1, 0.07, 260.00, 366.40>,
<20, 2, 0.07, 286.00, 358.96>,
<20, 3, 0.07, 396.00, 397.88>,
<20, 4, 0.04, 356.00, 387.68>,
<20, 5, 0.10, 256.00, 339.52>,
<20, 6, 0.05, 282.00, 353.98>,
<20, 7, 0.02, 316.00, 353.80>,
<20, 8, 0.04, 360.00, 381.20>,
<20, 9, 0.06, 340.00, 373.00>,
<20, 10, 0.02, 384.00, 396.16>,
<20, 11, 0.09, 326.00, 357.08>,
<20, 12, 0.01, 388.00, 396.16>,
<20, 13, 0.07, 316.00, 370.60>,
<20, 14, 0.11, 332.00, 367.36>,
<20, 15, 0.07, 258.00, 321.90>,
<20, 16, 0.12, 262.00, 340.66>,
<21, 1, 0.08, 316.00, 370.60>,
<21, 2, 0.05, 254.00, 362.04>,
<21, 3, 0.01, 240.00, 364.80>,
<21, 4, 0.06, 288.00, 363.04>,
<21, 5, 0.01, 318.00, 353.26>,
<21, 6, 0.00, 320.00, 360.00>,
<21, 7, 0.03, 304.00, 371.20>,
<21, 8, 0.07, 326.00, 355.60>,
<21, 9, 0.05, 274.00, 343.30>,
<21, 10, 0.13, 338.00, 367.14>,
<21, 11, 0.14, 314.00, 367.32>,
<21, 12, 0.08, 260.00, 330.00>,
<21, 13, 0.14, 268.00, 335.32>,
<21, 14, 0.08, 282.00, 359.88>,
<21, 15, 0.02, 256.00, 365.44>,
<21, 16, 0.05, 296.00, 357.36>,
<22, 1, 0.03, 286.00, 371.50>,
<22, 2, 0.08, 314.00, 378.50>,
<22, 3, 0.10, 256.00, 315.04>,
<22, 4, 0.06, 324.00, 374.92>,
<22, 5, 0.08, 386.00, 391.88>,
<22, 6, 0.09, 256.00, 317.92>,
<22, 7, 0.08, 252.00, 367.44>,
<22, 8, 0.00, 248.00, 320.96>,
<22, 9, 0.02, 328.00, 384.88>,
<22, 10, 0.02, 308.00, 369.64>,
<22, 11, 0.08, 376.00, 389.44>,
<22, 12, 0.09, 246.00, 358.42>,
<22, 13, 0.09, 392.00, 397.36>,
<22, 14, 0.08, 302.00, 361.78>,
<22, 15, 0.05, 358.00, 377.32>,
<22, 16, 0.04, 270.00, 364.90>,
<23, 1, 0.08, 264.00, 344.24>,
<23, 2, 0.08, 284.00, 365.20>,
<23, 3, 0.10, 250.00, 350.50>,
<23, 4, 0.00, 256.00, 325.12>,
<23, 5, 0.04, 392.00, 398.32>,
<23, 6, 0.10, 378.00, 394.72>,
<23, 7, 0.05, 344.00, 367.52>,
<23, 8, 0.08, 266.00, 371.86>,
<23, 9, 0.08, 358.00, 381.94>,
<23, 10, 0.09, 336.00, 376.96>,
<23, 11, 0.04, 248.00, 368.08>,
<23, 12, 0.04, 318.00, 359.00>,
<23, 13, 0.00, 260.00, 327.20>,
<23, 14, 0.10, 328.00, 364.72>,
<23, 15, 0.06, 250.00, 349.00>,
<23, 16, 0.05, 292.00, 351.40>,
<24, 1, 0.02, 380.00, 394.40>,
<24, 2, 0.07, 314.00, 369.04>,
<24, 3, 0.00, 378.00, 393.84>,
<24, 4, 0.06, 376.00, 394.24>,
<24, 5, 0.02, 374.00, 387.00>,
<24, 6, 0.13, 260.00, 335.60>,
<24, 7, 0.14, 304.00, 345.28>,
<24, 8, 0.04, 304.00, 352.00>,
<24, 9, 0.01, 244.00, 312.64>,
<24, 10, 0.08, 282.00, 349.26>,
<24, 11, 0.04, 258.00, 327.58>,
<24, 12, 0.05, 250.00, 340.00>,
<24, 13, 0.03, 284.00, 333.88>,
<24, 14, 0.02, 354.00, 372.86>,
<24, 15, 0.13, 392.00, 396.88>,
<24, 16, 0.16, 302.00, 354.92>,
<25, 1, 0.10, 354.00, 382.98>,
<25, 2, 0.04, 290.00, 375.80>,
<25, 3, 0.08, 376.00, 387.52>,
<25, 4, 0.05, 240.00, 347.20>,
<25, 5, 0.09, 264.00, 356.48>,
<25, 6, 0.01, 380.00, 392.20>,
<25, 7, 0.09, 324.00, 357.44>,
<25, 8, 0.08, 378.00, 392.96>,
<25, 9, 0.05, 248.00, 342.24>,
<25, 10, 0.00, 344.00, 367.52>,
<25, 11, 0.07, 260.00, 342.60>,
<25, 12, 0.10, 252.00, 348.20>,
<25, 13, 0.09, 330.00, 360.80>,
<25, 14, 0.09, 354.00, 387.12>,
<25, 15, 0.05, 312.00, 369.20>,
<25, 16, 0.01, 332.00, 361.24>,
<26, 1, 0.09, 398.00, 399.38>,
<26, 2, 0.10, 362.00, 385.18>,
<26, 3, 0.09, 368.00, 390.72>,
<26, 4, 0.03, 324.00, 362.76>,
<26, 5, 0.04, 398.00, 398.98>,
<26, 6, 0.09, 378.00, 387.02>,
<26, 7, 0.07, 276.00, 352.88>,
<26, 8, 0.09, 384.00, 394.88>,
<26, 9, 0.01, 274.00, 352.12>,
<26, 10, 0.06, 248.00, 340.72>,
<26, 11, 0.03, 344.00, 375.92>,
<26, 12, 0.06, 282.00, 346.90>,
<26, 13, 0.06, 288.00, 359.68>,
<26, 14, 0.08, 274.00, 367.24>,
<26, 15, 0.04, 272.00, 342.40>,
<26, 16, 0.06, 390.00, 396.60>,
<27, 1, 0.12, 390.00, 394.50>,
<27, 2, 0.04, 290.00, 368.10>,
<27, 3, 0.11, 394.00, 398.62>,
<27, 4, 0.10, 258.00, 361.66>,
<27, 5, 0.02, 382.00, 391.18>,
<27, 6, 0.02, 398.00, 399.26>,
<27, 7, 0.04, 366.00, 392.18>,
<27, 8, 0.00, 244.00, 307.96>,
<27, 9, 0.04, 252.00, 368.92>,
<27, 10, 0.09, 380.00, 395.40>,
<27, 11, 0.13, 388.00, 395.92>,
<27, 12, 0.01, 344.00, 374.24>,
<27, 13, 0.09, 354.00, 389.88>,
<27, 14, 0.08, 362.00, 377.58>,
<27, 15, 0.06, 316.00, 361.36>,
<27, 16, 0.05, 352.00, 375.52>,
<28, 1, 0.09, 396.00, 398.48>,
<28, 2, 0.08, 322.00, 373.48>,
<28, 3, 0.04, 364.00, 380.56>,
<28, 4, 0.04, 338.00, 370.86>,
<28, 5, 0.08, 362.00, 381.00>,
<28, 6, 0.07, 398.00, 399.42>,
<28, 7, 0.11, 352.00, 383.20>,
<28, 8, 0.10, 240.00, 361.60>,
<28, 9, 0.10, 356.00, 380.64>,
<28, 10, 0.02, 308.00, 375.16>,
<28, 11, 0.05, 302.00, 378.44>,
<28, 12, 0.05, 342.00, 384.92>,
<28, 13, 0.04, 312.00, 370.08>,
<28, 14, 0.10, 274.00, 369.76>,
<28, 15, 0.01, 268.00, 356.44>,
<28, 16, 0.02, 352.00, 386.56>,
<29, 1, 0.07, 252.00, 361.52>,
<29, 2, 0.09, 388.00, 394.12>,
<29, 3, 0.06, 392.00, 395.28>,
<29, 4, 0.08, 354.00, 382.98>,
<29, 5, 0.03, 340.00, 374.20>,
<29, 6, 0.04, 244.00, 317.32>,
<29, 7, 0.11, 346.00, 383.26>,
<29, 8, 0.00, 366.00, 380.28>,
<29, 9, 0.11, 296.00, 345.92>,
<29, 10, 0.00, 264.00, 336.08>,
<29, 11, 0.07, 332.00, 359.20>,
<29, 12, 0.10, 350.00, 384.50>,
<29, 13, 0.09, 332.00, 362.60>,
<29, 14, 0.04, 248.00, 345.28>,
<29, 15, 0.09, 266.00, 337.02>,
<29, 16, 0.01, 350.00, 389.50>,
<30, 1, 0.10, 290.00, 356.00>,
<30, 2, 0.04, 280.00, 334.00>,
<30, 3, 0.07, 362.00, 382.90>,
<30, 4, 0.08, 306.00, 371.80>,
<30, 5, 0.12, 382.00, 389.74>,
<30, 6, 0.06, 330.00, 359.40>,
<30, 7, 0.02, 286.00, 365.80>,
<30, 8, 0.04, 370.00, 386.50>,
<30, 9, 0.07, 374.00, 387.00>,
<30, 10, 0.01, 350.00, 370.50>,
<30, 11, 0.05, 256.00, 351.04>,
<30, 12, 0.00, 354.00, 378.38>,
<30, 13, 0.10, 352.00, 383.68>,
<30, 14, 0.09, 362.00, 381.00>,
<30, 15, 0.08, 386.00, 396.78>,
<30, 16, 0.06, 328.00, 364.72>,
<31, 1, 0.07, 384.00, 395.04>,
<31, 2, 0.10, 258.00, 358.82>,
<31, 3, 0.02, 288.00, 357.44>,
<31, 4, 0.00, 268.00, 337.96>,
<31, 5, 0.03, 372.00, 389.08>,
<31, 6, 0.01, 276.00, 371.48>,
<31, 7, 0.07, 270.00, 323.30>,
<31, 8, 0.06, 370.00, 389.50>,
<31, 9, 0.06, 332.00, 376.88>,
<31, 10, 0.07, 340.00, 364.60>,
<31, 11, 0.12, 366.00, 380.96>,
<31, 12, 0.08, 258.00, 327.58>,
<31, 13, 0.11, 380.00, 390.20>,
<31, 14, 0.08, 336.00, 371.84>,
<31, 15, 0.05, 340.00, 376.60>,
<31, 16, 0.05, 334.00, 370.30>,
<32, 1, 0.13, 378.00, 389.22>,
<32, 2, 0.10, 396.00, 397.96>,
<32, 3, 0.01, 316.00, 371.44>,
<32, 4, 0.15, 330.00, 384.60>,
<32, 5, 0.08, 332.00, 370.08>,
<32, 6, 0.01, 304.00, 352.96>,
<32, 7, 0.06, 398.00, 399.52>,
<32, 8, 0.10, 260.00, 366.40>,
<32, 9, 0.06, 320.00, 357.60>,
<32, 10, 0.08, 256.00, 355.36>,
<32, 11, 0.12, 350.00, 372.00>,
<32, 12, 0.01, 244.00, 325.12>,
<32, 13, 0.01, 378.00, 388.34>,
<32, 14, 0.06, 278.00, 334.12>,
<32, 15, 0.01, 244.00, 312.64>,
<32, 16, 0.01, 240.00, 347.20>,
<33, 1, 0.01, 300.00, 374.00>,
<33, 2, 0.05, 320.00, 356.00>,
<33, 3, 0.00, 356.00, 384.60>,
<33, 4, 0.08, 290.00, 375.80>,
<33, 5, 0.05, 262.00, 365.50>,
<33, 6, 0.05, 346.00, 368.68>,
<33, 7, 0.08, 254.00, 312.40>,
<33, 8, 0.07, 386.00, 394.96>,
<33, 9, 0.05, 276.00, 326.84>,
<33, 10, 0.11, 334.00, 371.62>,
<33, 11, 0.11, 308.00, 366.88>,
<33, 12, 0.03, 268.00, 355.12>,
<33, 13, 0.09, 346.00, 375.16>,
<33, 14, 0.10, 336.00, 380.16>,
<33, 15, 0.09, 298.00, 366.34>,
<33, 16, 0.04, 326.00, 365.96>,
<34, 1, 0.03, 368.00, 388.16>,
<34, 2, 0.12, 300.00, 364.00>,
<34, 3, 0.07, 292.00, 343.84>,
<34, 4, 0.03, 284.00, 364.04>,
<34, 5, 0.05, 260.00, 365.00>,
<34, 6, 0.11, 288.00, 337.28>,
<34, 7, 0.05, 270.00, 357.10>,
<34, 8, 0.04, 258.00, 341.78>,
<34, 9, 0.01, 324.00, 381.00>,
<34, 10, 0.06, 358.00, 378.16>,
<34, 11, 0.03, 354.00, 381.60>,
<34, 12, 0.09, 338.00, 369.00>,
<34, 13, 0.05, 394.00, 396.46>,
<34, 14, 0.12, 330.00, 363.60>,
<34, 15, 0.09, 376.00, 390.88>,
<34, 16, 0.05, 322.00, 370.36>,
<35, 1, 0.11, 392.00, 397.44>,
<35, 2, 0.09, 290.00, 357.10>,
<35, 3, 0.01, 248.00, 322.48>,
<35, 4, 0.02, 266.00, 342.38>,
<35, 5, 0.12, 300.00, 355.00>,
<35, 6, 0.07, 374.00, 385.70>,
<35, 7, 0.03, 326.00, 377.06>,
<35, 8, 0.08, 368.00, 384.64>,
<35, 9, 0.01, 384.00, 390.72>,
<35, 10, 0.10, 270.00, 333.70>,
<35, 11, 0.06, 260.00, 370.60>,
<35, 12, 0.06, 272.00, 370.56>,
<35, 13, 0.11, 344.00, 367.52>,
<35, 14, 0.00, 336.00, 382.08>,
<35, 15, 0.02, 266.00, 330.32>,
<35, 16, 0.10, 264.00, 333.36>,
<36, 1, 0.03, 250.00, 328.00>,
<36, 2, 0.07, 384.00, 394.08>,
<36, 3, 0.00, 398.00, 399.42>,
<36, 4, 0.12, 378.00, 389.88>,
<36, 5, 0.01, 252.00, 349.68>,
<36, 6, 0.08, 282.00, 355.16>,
<36, 7, 0.11, 262.00, 359.98>,
<36, 8, 0.07, 294.00, 349.12>,
<36, 9, 0.03, 288.00, 375.36>,
<36, 10, 0.12, 266.00, 350.42>,
<36, 11, 0.00, 268.00, 360.40>,
<36, 12, 0.00, 312.00, 352.48>,
<36, 13, 0.12, 290.00, 374.70>,
<36, 14, 0.10, 342.00, 379.12>,
<36, 15, 0.04, 270.00, 342.80>,
<36, 16, 0.08, 280.00, 354.40>,
<37, 1, 0.01, 330.00, 369.90>,
<37, 2, 0.08, 362.00, 379.86>,
<37, 3, 0.10, 244.00, 311.08>,
<37, 4, 0.11, 394.00, 397.36>,
<37, 5, 0.08, 286.00, 356.68>,
<37, 6, 0.08, 328.00, 357.52>,
<37, 7, 0.02, 294.00, 349.12>,
<37, 8, 0.02, 354.00, 381.14>,
<37, 9, 0.05, 312.00, 375.36>,
<37, 10, 0.02, 398.00, 398.94>,
<37, 11, 0.07, 244.00, 357.88>,
<37, 12, 0.11, 260.00, 352.40>,
<37, 13, 0.00, 336.00, 380.16>,
<37, 14, 0.10, 364.00, 379.12>,
<37, 15, 0.06, 268.00, 327.40>,
<37, 16, 0.08, 368.00, 390.72>,
<38, 1, 0.05, 378.00, 391.86>,
<38, 2, 0.04, 272.00, 361.60>,
<38, 3, 0.09, 300.00, 358.00>,
<38, 4, 0.09, 246.00, 324.54>,
<38, 5, 0.11, 352.00, 384.64>,
<38, 6, 0.11, 300.00, 353.00>,
<38, 7, 0.04, 314.00, 378.50>,
<38, 8, 0.01, 254.00, 341.60>,
<38, 9, 0.08, 390.00, 395.10>,
<38, 10, 0.04, 324.00, 368.84>,
<38, 11, 0.06, 396.00, 398.80>,
<38, 12, 0.04, 322.00, 358.66>,
<38, 13, 0.06, 392.00, 395.60>,
<38, 14, 0.12, 358.00, 382.36>,
<38, 15, 0.03, 266.00, 347.74>,
<38, 16, 0.05, 244.00, 334.48>,
<39, 1, 0.03, 342.00, 384.34>,
<39, 2, 0.12, 362.00, 377.20>,
<39, 3, 0.04, 242.00, 339.96>,
<39, 4, 0.11, 298.00, 354.10>,
<39, 5, 0.06, 364.00, 383.80>,
<39, 6, 0.10, 384.00, 392.48>,
<39, 7, 0.08, 256.00, 352.48>,
<39, 8, 0.02, 294.00, 341.70>,
<39, 9, 0.06, 316.00, 368.92>,
<39, 10, 0.01, 270.00, 346.70>,
<39, 11, 0.07, 322.00, 375.82>,
<39, 12, 0.13, 328.00, 372.64>,
<39, 13, 0.04, 300.00, 354.00>,
<39, 14, 0.06, 296.00, 364.64>,
<39, 15, 0.05, 346.00, 369.22>,
<39, 16, 0.02, 336.00, 369.92>,
<40, 1, 0.05, 364.00, 382.00>,
<40, 2, 0.08, 292.00, 348.16>,
<40, 3, 0.11, 394.00, 396.94>,
<40, 4, 0.07, 356.00, 387.24>,
<40, 5, 0.07, 262.00, 339.28>,
<40, 6, 0.03, 246.00, 356.88>,
<40, 7, 0.03, 332.00, 383.68>,
<40, 8, 0.05, 360.00, 390.80>,
<40, 9, 0.02, 318.00, 380.32>,
<40, 10, 0.11, 336.00, 370.56>,
<40, 11, 0.12, 366.00, 381.64>,
<40, 12, 0.00, 380.00, 395.00>,
<40, 13, 0.09, 246.00, 329.16>,
<40, 14, 0.10, 252.00, 339.32>,
<40, 15, 0.07, 334.00, 384.16>,
<40, 16, 0.02, 306.00, 352.06>,
<41, 1, 0.06, 260.00, 367.80>,
<41, 2, 0.00, 294.00, 377.74>,
<41, 3, 0.07, 288.00, 369.76>,
<41, 4, 0.08, 372.00, 390.76>,
<41, 5, 0.09, 372.00, 384.88>,
<41, 6, 0.06, 342.00, 381.44>,
<41, 7, 0.01, 352.00, 388.96>,
<41, 8, 0.08, 362.00, 384.42>,
<41, 9, 0.09, 352.00, 383.20>,
<41, 10, 0.10, 288.00, 376.48>,
<41, 11, 0.02, 368.00, 383.36>,
<41, 12, 0.07, 294.00, 371.38>,
<41, 13, 0.06, 318.00, 372.12>,
<41, 14, 0.08, 348.00, 382.32>,
<41, 15, 0.04, 350.00, 371.50>,
<41, 16, 0.07, 364.00, 383.80>,
<42, 1, 0.08, 292.00, 352.48>,
<42, 2, 0.09, 352.00, 387.04>,
<42, 3, 0.01, 312.00, 373.60>,
<42, 4, 0.05, 392.00, 397.84>,
<42, 5, 0.03, 310.00, 368.50>,
<42, 6, 0.09, 336.00, 363.52>,
<42, 7, 0.07, 382.00, 394.06>,
<42, 8, 0.09, 340.00, 376.60>,
<42, 9, 0.11, 298.00, 368.38>,
<42, 10, 0.04, 348.00, 369.84>,
<42, 11, 0.03, 368.00, 391.36>,
<42, 12, 0.11, 358.00, 380.68>,
<42, 13, 0.03, 320.00, 353.60>,
<42, 14, 0.02, 250.00, 353.50>,
<42, 15, 0.07, 336.00, 384.64>,
<42, 16, 0.08, 276.00, 351.64>,
<43, 1, 0.09, 314.00, 363.02>,
<43, 2, 0.04, 360.00, 379.60>,
<43, 3, 0.08, 362.00, 377.20>,
<43, 4, 0.09, 334.00, 380.20>,
<43, 5, 0.08, 300.00, 374.00>,
<43, 6, 0.00, 286.00, 336.16>,
<43, 7, 0.09, 366.00, 380.96>,
<43, 8, 0.06, 246.00, 319.92>,
<43, 9, 0.05, 354.00, 387.12>,
<43, 10, 0.09, 244.00, 334.48>,
<43, 11, 0.09, 340.00, 365.80>,
<43, 12, 0.06, 306.00, 351.12>,
<43, 13, 0.01, 246.00, 350.72>,
<43, 14, 0.07, 306.00, 380.26>,
<43, 15, 0.03, 326.00, 377.80>,
<43, 16, 0.05, 380.00, 395.80>,
<44, 1, 0.01, 250.00, 359.50>,
<44, 2, 0.04, 338.00, 367.76>,
<44, 3, 0.04, 354.00, 375.16>,
<44, 4, 0.05, 268.00, 351.16>,
<44, 5, 0.06, 322.00, 377.38>,
<44, 6, 0.09, 320.00, 368.80>,
<44, 7, 0.06, 278.00, 326.80>,
<44, 8, 0.04, 336.00, 365.44>,
<44, 9, 0.06, 384.00, 396.00>,
<44, 10, 0.06, 326.00, 377.06>,
<44, 11, 0.09, 376.00, 385.84>,
<44, 12, 0.07, 290.00, 348.30>,
<44, 13, 0.07, 314.00, 381.94>,
<44, 14, 0.05, 344.00, 374.80>,
<44, 15, 0.10, 350.00, 384.00>,
<44, 16, 0.09, 372.00, 383.20>,
<45, 1, 0.10, 342.00, 383.18>,
<45, 2, 0.07, 248.00, 366.56>,
<45, 3, 0.10, 240.00, 321.60>,
<45, 4, 0.05, 378.00, 391.42>,
<45, 5, 0.04, 260.00, 349.60>,
<45, 6, 0.07, 270.00, 333.70>,
<45, 7, 0.04, 288.00, 375.36>,
<45, 8, 0.09, 256.00, 355.36>,
<45, 9, 0.07, 344.00, 381.52>,
<45, 10, 0.04, 370.00, 386.20>,
<45, 11, 0.03, 290.00, 346.10>,
<45, 12, 0.02, 290.00, 345.00>,
<45, 13, 0.03, 308.00, 363.20>,
<45, 14, 0.09, 298.00, 361.24>,
<45, 15, 0.08, 360.00, 380.80>,
<45, 16, 0.08, 322.00, 361.00>,
<46, 1, 0.09, 298.00, 360.22>,
<46, 2, 0.05, 320.00, 383.20>,
<46, 3, 0.04, 298.00, 359.20>,
<46, 4, 0.06, 396.00, 398.56>,
<46, 5, 0.08, 310.00, 363.10>,
<46, 6, 0.03, 300.00, 352.00>,
<46, 7, 0.11, 252.00, 327.48>,
<46, 8, 0.06, 248.00, 358.96>,
<46, 9, 0.08, 334.00, 373.60>,
<46, 10, 0.07, 264.00, 366.00>,
<46, 11, 0.00, 336.00, 376.96>,
<46, 12, 0.02, 258.00, 329.00>,
<46, 13, 0.11, 378.00, 390.32>,
<46, 14, 0.06, 362.00, 379.10>,
<46, 15, 0.09, 272.00, 356.48>,
<46, 16, 0.06, 262.00, 362.74>,
<47, 1, 0.03, 340.00, 374.80>,
<47, 2, 0.06, 342.00, 383.76>,
<47, 3, 0.10, 302.00, 371.58>,
<47, 4, 0.03, 294.00, 374.56>,
<47, 5, 0.06, 256.00, 366.88>,
<47, 6, 0.01, 352.00, 378.40>,
<47, 7, 0.07, 360.00, 386.80>,
<47, 8, 0.10, 316.00, 372.28>,
<47, 9, 0.03, 314.00, 349.26>,
<47, 10, 0.05, 306.00, 368.98>,
<47, 11, 0.01, 356.00, 378.88>,
<47, 12, 0.11, 242.00, 344.70>,
<47, 13, 0.09, 348.00, 389.08>,
<47, 14, 0.10, 332.00, 374.84>,
<47, 15, 0.07, 340.00, 364.00>,
<47, 16, 0.08, 296.00, 378.16>,
<48, 1, 0.10, 292.00, 362.20>,
<48, 2, 0.06, 308.00, 377.92>,
<48, 3, 0.06, 308.00, 371.48>,
<48, 4, 0.11, 300.00, 374.00>,
<48, 5, 0.12, 274.00, 353.38>,
<48, 6, 0.04, 340.00, 377.80>,
<48, 7, 0.04, 286.00, 349.84>,
<48, 8, 0.04, 308.00, 366.88>,
<48, 9, 0.03, 242.00, 366.82>,
<48, 10, 0.09, 390.00, 396.50>,
<48, 11, 0.06, 332.00, 365.32>,
<48, 12, 0.01, 326.00, 373.36>,
<48, 13, 0.05, 240.00, 340.80>,
<48, 14, 0.06, 332.00, 362.60>,
<48, 15, 0.02, 346.00, 377.86>,
<48, 16, 0.12, 246.00, 324.54>,
<49, 1, 0.12, 288.00, 339.52>,
<49, 2, 0.02, 376.00, 385.60>,
<49, 3, 0.01, 362.00, 384.42>,
<49, 4, 0.11, 384.00, 391.04>,
<49, 5, 0.00, 332.00, 372.80>,
<49, 6, 0.05, 308.00, 354.92>,
<49, 7, 0.07, 260.00, 328.60>,
<49, 8, 0.11, 332.00, 368.72>,
<49, 9, 0.04, 264.00, 318.40>,
<49, 10, 0.06, 384.00, 393.76>,
<49, 11, 0.12, 320.00, 377.60>,
<49, 12, 0.06, 296.00, 365.68>,
<49, 13, 0.06, 240.00, 326.40>,
<49, 14, 0.03, 354.00, 384.36>,
<49, 15, 0.08, 390.00, 396.00>,
<49, 16, 0.05, 372.00, 387.96>,
<50, 1, 0.01, 398.00, 398.84>,
<50, 2, 0.05, 336.00, 383.36>,
<50, 3, 0.10, 276.00, 354.12>,
<50, 4, 0.11, 260.00, 349.60>,
<50, 5, 0.01, 356.00, 381.96>,
<50, 6, 0.03, 334.00, 383.50>,
<50, 7, 0.08, 296.00, 374.00>,
<50, 8, 0.04, 292.00, 375.16>,
<50, 9, 0.09, 320.00, 379.20>,
<50, 10, 0.09, 376.00, 393.28>,
<50, 11, 0.03, 272.00, 370.56>,
<50, 12, 0.07, 364.00, 391.36>,
<50, 13, 0.07, 270.00, 323.30>,
<50, 14, 0.05, 296.00, 359.44>,
<50, 15, 0.11, 352.00, 380.80>,
<50, 16, 0.05, 356.00, 375.80>,
<51, 1, 0.04, 324.00, 362.76>,
<51, 2, 0.07, 260.00, 328.60>,
<51, 3, 0.05, 374.00, 387.00>,
<51, 4, 0.04, 310.00, 381.10>,
<51, 5, 0.12, 268.00, 322.12>,
<51, 6, 0.12, 340.00, 366.40>,
<51, 7, 0.04, 396.00, 398.48>,
<51, 8, 0.04, 288.00, 355.20>,
<51, 9, 0.11, 382.00, 389.74>,
<51, 10, 0.11, 248.00, 340.72>,
<51, 11, 0.02, 368.00, 387.52>,
<51, 12, 0.08, 362.00, 382.90>,
<51, 13, 0.04, 336.00, 376.32>,
<51, 14, 0.11, 358.00, 387.82>,
<51, 15, 0.00, 266.00, 359.80>,
<51, 16, 0.03, 340.00, 377.20>,
<52, 1, 0.10, 304.00, 376.00>,
<52, 2, 0.10, 384.00, 391.36>,
<52, 3, 0.11, 322.00, 359.44>,
<52, 4, 0.10, 310.00, 358.60>,
<52, 5, 0.04, 322.00, 374.26>,
<52, 6, 0.11, 298.00, 378.58>,
<52, 7, 0.02, 358.00, 385.72>,
<52, 8, 0.00, 386.00, 394.68>,
<52, 9, 0.00, 274.00, 367.24>,
<52, 10, 0.06, 384.00, 393.60>,
<52, 11, 0.03, 362.00, 390.50>,
<52, 12, 0.02, 338.00, 364.66>,
<52, 13, 0.02, 380.00, 389.40>,
<52, 14, 0.10, 318.00, 364.74>,
<52, 15, 0.08, 390.00, 395.10>,
<52, 16, 0.11, 372.00, 389.92>,
<53, 1, 0.04, 394.00, 396.58>,
<53, 2, 0.00, 298.00, 354.10>,
<53, 3, 0.13, 366.00, 380.28>,
<53, 4, 0.11, 394.00, 396.40>,
<53, 5, 0.03, 264.00, 371.44>,
<53, 6, 0.05, 260.00, 356.60>,
<53, 7, 0.03, 340.00, 373.60>,
<53, 8, 0.11, 262.00, 331.00>,
<53, 9, 0.04, 250.00, 358.00>,
<53, 10, 0.11, 398.00, 399.26>,
<53, 11, 0.01, 354.00, 381.14>,
<53, 12, 0.03, 360.00, 382.00>,
<53, 13, 0.10, 350.00, 382.00>,
<53, 14, 0.03, 266.00, 330.32>,
<53, 15, 0.08, 368.00, 390.40>,
<53, 16, 0.08, 304.00, 347.20>,
<54, 1, 0.02, 384.00, 394.88>,
<54, 2, 0.09, 260.00, 342.60>,
<54, 3, 0.02, 306.00, 367.10>,
<54, 4, 0.03, 338.00, 372.72>,
<54, 5, 0.00, 306.00, 348.30>,
<54, 6, 0.13, 360.00, 381.20>,
<54, 7, 0.05, 258.00, 370.18>,
<54, 8, 0.00, 394.00, 398.20>,
<54, 9, 0.13, 278.00, 351.20>,
<54, 10, 0.07, 318.00, 368.02>,
<54, 11, 0.12, 254.00, 324.08>,
<54, 12, 0.03, 272.00, 324.48>,
<54, 13, 0.05, 252.00, 348.20>,
<54, 14, 0.13, 380.00, 392.80>,
<54, 15, 0.10, 368.00, 382.72>,
<54, 16, 0.04, 298.00, 377.56>,
<55, 1, 0.12, 362.00, 381.00>,
<55, 2, 0.07, 310.00, 367.60>,
<55, 3, 0.02, 304.00, 369.28>,
<55, 4, 0.08, 378.00, 394.50>,
<55, 5, 0.12, 266.00, 357.12>,
<55, 6, 0.03, 358.00, 377.74>,
<55, 7, 0.09, 362.00, 391.64>,
<55, 8, 0.05, 396.00, 397.96>,
<55, 9, 0.00, 262.00, 346.18>,
<55, 10, 0.09, 394.00, 397.12>,
<55, 11, 0.08, 322.00, 364.90>,
<55, 12, 0.05, 324.00, 378.72>,
<55, 13, 0.07, 264.00, 325.20>,
<55, 14, 0.03, 248.00, 360.48>,
<55, 15, 0.04, 304.00, 363.52>,
<55, 16, 0.06, 302.00, 370.60>,
<56, 1, 0.01, 320.00, 358.40>,
<56, 2, 0.12, 378.00, 393.62>,
<56, 3, 0.09, 252.00, 363.00>,
<56, 4, 0.11, 244.00, 339.16>,
<56, 5, 0.01, 344.00, 382.64>,
<56, 6, 0.04, 252.00, 320.08>,
<56, 7, 0.07, 378.00, 387.02>,
<56, 8, 0.02, 390.00, 396.50>,
<56, 9, 0.04, 370.00, 393.70>,
<56, 10, 0.04, 302.00, 378.44>,
<56, 11, 0.12, 306.00, 380.26>,
<56, 12, 0.05, 280.00, 329.20>,
<56, 13, 0.08, 284.00, 353.60>,
<56, 14, 0.07, 278.00, 354.86>,
<56, 15, 0.08, 368.00, 386.88>,
<56, 16, 0.04, 330.00, 380.40>,
<57, 1, 0.11, 314.00, 360.44>,
<57, 2, 0.06, 326.00, 380.76>,
<57, 3, 0.08, 362.00, 386.32>,
<57, 4, 0.06, 338.00, 379.54>,
<57, 5, 0.10, 334.00, 372.94>,
<57, 6, 0.02, 294.00, 358.66>,
<57, 7, 0.04, 384.00, 395.04>,
<57, 8, 0.07, 342.00, 379.70>,
<57, 9, 0.07, 240.00, 320.00>,
<57, 10, 0.10, 328.00, 380.56>,
<57, 11, 0.11, 340.00, 380.80>,
<57, 12, 0.01, 254.00, 319.70>,
<57, 13, 0.05, 368.00, 388.16>,
<57, 14, 0.03, 394.00, 397.06>,
<57, 15, 0.09, 320.00, 364.00>,
<57, 16, 0.00, 320.00, 362.40>,
<58, 1, 0.04, 312.00, 364.80>,
<58, 2, 0.12, 396.00, 398.16>,
<58, 3, 0.05, 386.00, 397.06>,
<58, 4, 0.06, 332.00, 375.52>,
<58, 5, 0.02, 310.00, 374.80>,
<58, 6, 0.06, 266.00, 359.80>,
<58, 7, 0.12, 308.00, 351.24>,
<58, 8, 0.04, 240.00, 340.80>,
<58, 9, 0.06, 390.00, 396.10>,
<58, 10, 0.15, 390.00, 395.50>,
<58, 11, 0.10, 350.00, 380.00>,
<58, 12, 0.05, 312.00, 363.92>,
<58, 13, 0.03, 342.00, 386.66>,
<58, 14, 0.08, 278.00, 373.16>,
<58, 15, 0.02, 332.00, 365.32>,
<58, 16, 0.01, 368.00, 384.96>,
<59, 1, 0.01, 378.00, 389.88>,
<59, 2, 0.05, 310.00, 374.80>,
<59, 3, 0.00, 330.00, 371.30>,
<59, 4, 0.12, 244.00, 311.08>,
<59, 5, 0.02, 280.00, 343.60>,
<59, 6, 0.05, 276.00, 352.88>,
<59, 7, 0.10, 360.00, 379.20>,
<59, 8, 0.12, 344.00, 369.76>,
<59, 9, 0.07, 362.00, 386.70>,
<59, 10, 0.05, 354.00, 380.68>,
<59, 11, 0.07, 314.00, 358.72>,
<59, 12, 0.05, 350.00, 376.50>,
<59, 13, 0.09, 356.00, 388.56>,
<59, 14, 0.08, 274.00, 365.98>,
<59, 15, 0.09, 388.00, 394.48>,
<59, 16, 0.02, 344.00, 377.60>,
<60, 1, 0.09, 308.00, 357.68>,
<60, 2, 0.03, 296.00, 350.08>,
<60, 3, 0.06, 248.00, 346.80>,
<60, 4, 0.01, 264.00, 351.04>,
<60, 5, 0.10, 248.00, 336.16>,
<60, 6, 0.01, 254.00, 313.86>,
<60, 7, 0.01, 336.00, 372.48>,
<60, 8, 0.10, 326.00, 358.56>,
<60, 9, 0.09, 340.00, 380.80>,
<60, 10, 0.11, 320.00, 356.80>,
<60, 11, 0.04, 302.00, 345.12>,
<60, 12, 0.03, 280.00, 352.00>,
<60, 13, 0.11, 316.00, 370.60>,
<60, 14, 0.08, 294.00, 358.66>,
<60, 15, 0.09, 380.00, 391.40>,
<60, 16, 0.04, 362.00, 377.20>,
<61, 1, 0.06, 244.00, 342.28>,
<61, 2, 0.07, 268.00, 334.00>,
<61, 3, 0.12, 362.00, 390.50>,
<61, 4, 0.02, 266.00, 341.04>,
<61, 5, 0.01, 368.00, 387.84>,
<61, 6, 0.12, 240.00, 312.00>,
<61, 7, 0.06, 304.00, 354.88>,
<61, 8, 0.08, 374.00, 388.04>,
<61, 9, 0.08, 298.00, 357.16>,
<61, 10, 0.04, 376.00, 392.56>,
<61, 11, 0.02, 368.00, 382.40>,
<61, 12, 0.00, 362.00, 387.84>,
<61, 13, 0.10, 262.00, 371.02>,
<61, 14, 0.03, 312.00, 365.68>,
<61, 15, 0.11, 308.00, 376.08>,
<61, 16, 0.06, 258.00, 341.78>,
<62, 1, 0.12, 308.00, 361.36>,
<62, 2, 0.07, 296.00, 377.12>,
<62, 3, 0.04, 280.00, 359.20>,
<62, 4, 0.07, 286.00, 348.70>,
<62, 5, 0.04, 356.00, 385.92>,
<62, 6, 0.10, 354.00, 387.58>,
<62, 7, 0.03, 254.00, 350.36>,
<62, 8, 0.04, 272.00, 362.88>,
<62, 9, 0.12, 242.00, 319.42>,
<62, 10, 0.06, 240.00, 328.00>,
<62, 11, 0.07, 242.00, 332.06>,
<62, 12, 0.02, 386.00, 392.44>,
<62, 13, 0.02, 374.00, 392.72>,
<62, 14, 0.06, 290.00, 337.30>,
<62, 15, 0.07, 378.00, 389.44>,
<62, 16, 0.08, 390.00, 395.40>,
<63, 1, 0.02, 354.00, 375.62>,
<63, 2, 0.07, 280.00, 331.60>,
<63, 3, 0.13, 280.00, 366.40>,
<63, 4, 0.04, 376.00, 390.16>,
<63, 5, 0.11, 270.00, 350.60>,
<63, 6, 0.02, 396.00, 399.12>,
<63, 7, 0.02, 310.00, 375.70>,
<63, 8, 0.04, 362.00, 379.48>,
<63, 9, 0.05, 348.00, 381.28>,
<63, 10, 0.05, 374.00, 389.34>,
<63, 11, 0.08, 328.00, 359.68>,
<63, 12, 0.12, 272.00, 336.00>,
<63, 13, 0.13, 290.00, 350.50>,
<63, 14, 0.01, 346.00, 371.38>,
<63, 15, 0.08, 384.00, 395.36>,
<63, 16, 0.03, 380.00, 394.80>,
<64, 1, 0.07, 284.00, 373.32>,
<64, 2, 0.08, 314.00, 354.42>,
<64, 3, 0.09, 382.00, 391.72>,
<64, 4, 0.06, 396.00, 399.08>,
<64, 5, 0.10, 346.00, 372.46>,
<64, 6, 0.02, 258.00, 347.46>,
<64, 7, 0.12, 314.00, 364.74>,
<64, 8, 0.04, 270.00, 354.50>,
<64, 9, 0.10, 350.00, 383.50>,
<64, 10, 0.05, 372.00, 389.08>,
<64, 11, 0.03, 376.00, 389.92>,
<64, 12, 0.07, 256.00, 316.48>,
<64, 13, 0.04, 326.00, 361.52>,
<64, 14, 0.03, 384.00, 392.80>,
<64, 15, 0.03, 388.00, 396.76>,
<64, 16, 0.05, 358.00, 376.90>};

Synergies= [
<1 , 0 ,9, 3, 3, 3, 3>,
<2 , 0 ,7, 1, 2, 3, 3>];

SItems= [{<1 ,19, 10>,<1, 61, 12>,<1, 61, 4>},
{<2 ,19, 3>,<2, 19, 12>,<2, 19, 5>}];